15
873 495 536  531
736 920 585  185
963 965 893  571
893 746 582  173
693 621 618  161
845 964 410  139
513 508 756  586
963 897 947  527
443 838 432  205
567 493 642  446
917 944 978  597
546 756 674  493
503 574 783  559
674 655 694  223
664 402 466  542
10
627 674 139  212 106
555 776 283  91 293
762 612 507  261 123
651 441 307  27 95
53 598 31  94 287
778 727 72  77 141
253 798 563  112 140
318 170 191  39 10
192 550 224  247 282
395 596 86  27 230
